11 5
0 15 375 1 18 12 2 27 142 3 22 245 4 28 412 1779 200 
0 45 632 1 44 452 2 27 758 3 49 278 4 37 398 3777 200 
0 49 12 1 51 876 2 30 124 3 23 534 4 37 765 3466 200 
0 17 460 1 32 542 2 47 523 3 30 120 4 45 499 3216 200 
0 27 528 1 46 101 2 29 789 3 15 124 4 31 999 3812 200 
0 55 796 1 27 245 2 48 632 3 29 375 4 20 123 3256 200 
0 58 532 1 48 230 2 49 543 3 44 896 4 51 452 3980 200 
0 22 14 1 22 124 2 29 214 3 57 543 4 56 785 2520 200 
0 37 257 1 49 527 2 41 753 3 56 210 4 37 463 3315 200 
0 58 896 1 19 896 2 19 214 3 19 258 4 24 259 3784 200 
0 30 532 1 52 302 2 31 501 3 32 765 4 37 988 4632 200